Comps = {frontend0, frontend1, frontend2, backend0, backend1, database0, database1};
mustComps = {frontend0, frontend1, frontend2};
Flavs = {tiny, medium, large};
Nodes = {n1, n2, n3};
CRes = {CPU, RAM, storage, bwIn, bwOut};
NRes = {ssl, fwall, encr, avail, latency};
Flav = [{medium, large}, {medium, large}, {medium, large}, {tiny, medium, large}, {tiny, medium, large}, {large}, {large}];
Uses = [{backend1}, {backend1}, {backend0}, {backend1}, {backend1}, {backend0}, {}, {}, {database1}, {database1}, {database1}, {database1}, {}, {}];
MAX_BOUND = 1000000;

worstBounds = [0, 0, 0, 0, 0, 0, 0, 0, 0, MAX_BOUND];
bestBounds = [MAX_BOUND - i | i in worstBounds];

comReq = array2d(CompFlavs, Res, [
  2, 206, 253, 798, 950, 0, 1, 0, 97, MAX_BOUND,
  2, 421, 465, 580, 878, 0, 1, 0, 97, MAX_BOUND,
  2, 424, 450, 244, 995, 1, 0, 1, 97, MAX_BOUND,
  2, 350, 371, 207, 509, 1, 1, 1, 96, MAX_BOUND,
  2, 337, 226, 790, 926, 0, 0, 1, 97, MAX_BOUND,
  2, 255, 211, 941, 352, 1, 1, 1, 96, MAX_BOUND,
  2, 319, 402, 529, 283, 1, 1, 1, 95, MAX_BOUND,
  2, 350, 388, 508, 775, 1, 1, 0, 96, MAX_BOUND,
  2, 348, 478, 238, 401, 1, 1, 1, 96, MAX_BOUND,
  2, 353, 246, 720, 223, 1, 1, 1, 95, MAX_BOUND,
  2, 357, 225, 482, 645, 1, 1, 0, 96, MAX_BOUND,
  2, 472, 320, 813, 342, 1, 1, 1, 95, MAX_BOUND,
  4, 309, 395, 998, 746, 1, 0, 0, 97, MAX_BOUND,
  2, 270, 478, 1000, 792, 1, 1, 1, 95, MAX_BOUND,
]);

nodeCap = array2d(Nodes0, Res, [bestBounds[r] | r in Res] ++ [
  16, 106965, 778776, 21609, 18798, 1, 1, 1, 98, 0,
  16, 58136, 261977, 11865, 13229, 1, 1, 1, 99, 0,
  32, 74670, 694506, 17279, 15336, 0, 0, 1, 99, 0,
]);

cost = array2d(Nodes0, Res, [
  0, 0, 0, 0, 0, 0, 0, 0, 0, 0, % no node
  19, 10, 17, 0, 0, 0, 0, 0, 0, 0,
  12, 6, 15, 0, 0, 0, 0, 0, 0, 0,
  17, 6, 16, 0, 0, 0, 0, 0, 0, 0,
]);

cons = array2d(Nodes0, Res, [
  0, 0, 0, 0, 0, 0, 0, 0, 0, 0, % no node
  2, 28, 20, 0, 0, 0, 0, 0, 0, 0,
  29, 39, 49, 0, 0, 0, 0, 0, 0, 0,
  20, 19, 32, 0, 0, 0, 0, 0, 0, 0,
]);

costWeight = 0;
consWeight = 1;

costBudget = 69874;
consBudget = 46023;

depReq = array3d(Comps, Comps, Res, [
  if c1 = frontend2 /\ c2 = backend0 /\ r = N(avail) then
    96
  elseif c1 = frontend0 /\ c2 = backend0 /\ r = N(avail) then
    96
  elseif c1 = frontend2 /\ c2 = backend1 /\ r = N(avail) then
    96
  elseif c1 = frontend0 /\ c2 = backend1 /\ r = N(avail) then
    95
  elseif c1 = frontend1 /\ c2 = backend1 /\ r = N(avail) then
    96
  elseif c1 = frontend1 /\ c2 = backend0 /\ r = N(avail) then
    95
  else
    worstBounds[r]
  endif | c1 in Comps, c2 in Comps, r in Res]);

linkCap = array3d(Nodes0, Nodes0, Res, [
  if ni = 0 \/ nj = 0 then
    bestBounds[r]
  elseif ni = nj /\ r = N(avail) then
    nodeCap[ni,r]
  elseif {ni, nj} = {n1, n3} /\ r = N(avail) then
    98
  elseif {ni, nj} = {n1, n2} /\ r = N(avail) then
    99
  elseif {ni, nj} = {n2, n3} /\ r = N(avail) then
    98
  else
    worstBounds[r]
  endif | ni in Nodes0, nj in Nodes0, r in Res]);

imp = array2d(Comps, Flavs, [
  1, 9, 10,
  5, 6, 10,
  2, 5, 9,
  1, 8, 10,
  1, 3, 5,
  1, 6, 10,
  1, 4, 5,
]);

